DIMENSION: 18
EDGE_WEIGHT_TYPE: EXPLICIT
EDGE_WEIGHT_FORMAT: FULL_MATRIX
EDGE_WEIGHT_SECTION:
32767 54 32767 54 32767 32767 32767 64 75 32767 32767 53 77 32767 4 32767 22 42 
54 32767 32767 32767 20 32767 26 41 65 27 32767 72 32767 72 32767 14 13 32767 
32767 32767 32767 32767 32767 32767 93 32767 32 32767 87 53 78 14 32767 57 85 32767 
54 32767 32767 32767 56 65 66 32767 32767 32767 48 32767 2 32767 32767 47 32767 32767 
32767 20 32767 56 32767 32767 62 100 32767 8 32767 32767 32767 87 53 34 32767 32767 
32767 32767 32767 65 32767 32767 5 2 42 32767 32767 32767 32767 32767 32767 32767 81 32767 
32767 26 93 66 62 5 32767 32767 32767 60 32767 32767 32767 32767 32767 32767 32767 32767 
64 41 32767 32767 100 2 32767 32767 32767 32767 32767 32767 32767 32767 32767 32767 32767 35 
75 65 32 32767 32767 42 32767 32767 32767 32767 32767 57 53 32767 32767 32767 60 32767 
32767 27 32767 32767 8 32767 60 32767 32767 32767 32767 32767 73 32767 32767 32767 32767 96 
32767 32767 87 48 32767 32767 32767 32767 32767 32767 32767 15 51 32767 32767 32767 32767 86 
53 72 53 32767 32767 32767 32767 32767 57 32767 15 32767 32767 32767 32767 32767 32767 73 
77 32767 78 2 32767 32767 32767 32767 53 73 51 32767 32767 32767 32767 32767 30 11 
32767 72 14 32767 87 32767 32767 32767 32767 32767 32767 32767 32767 32767 32 71 32767 66 
4 32767 32767 32767 53 32767 32767 32767 32767 32767 32767 32767 32767 32 32767 32767 95 88 
32767 14 57 47 34 32767 32767 32767 32767 32767 32767 32767 32767 71 32767 32767 32767 32767 
22 13 85 32767 32767 81 32767 32767 60 32767 32767 32767 30 32767 95 32767 32767 32767 
42 32767 32767 32767 32767 32767 32767 35 32767 96 86 73 11 66 88 32767 32767 32767 
EOF